0 179 170 171 166 181 250 162 154 181 168
179 0 165 179 178 190 222 171 179 191 162
170 165 0 165 164 175 231 159 173 177 163
171 179 165 0 154 162 242 162 175 163 175
166 178 164 154 0 166 244 159 170 166 172
181 190 175 162 166 0 245 174 186 153 187
250 222 231 242 244 245 0 240 251 249 234
162 171 159 162 159 174 240 0 165 175 163
154 179 173 175 170 186 251 165 0 185 168
181 191 177 163 166 153 249 175 185 0 188
168 162 163 175 172 187 234 163 168 188 0